Minimize
  0.2 y_0 + 0.0666666666666667 y_1 + 0.05 y_2 + 0.04 y_3
   + 0.0454545454545455 y_4 + 0.0454545454545455 y_5 + 0.1 y_6 + 0.1 y_7
   + 0.0588235294117647 y_8 + 0.0666666666666667 y_9
   + 0.0833333333333333 y_10 + 0.0769230769230769 y_11
   + 0.0476190476190476 y_12 + 0.0714285714285714 y_13
   + 0.0476190476190476 y_14 + 0.05 y_15 + 0.0476190476190476 y_16
   + 0.0625 y_17 + 0.0714285714285714 y_18 + 0.0476190476190476 y_19
   + 0.3333333333333333 y_20 + 0.04 y_21 + 0.1666666666666667 y_22
   + 0.0666666666666667 y_23 + 0.0555555555555556 y_24 + 0.25 y_25
   + 0.0588235294117647 y_26 + 0.0555555555555556 y_27
   + 0.0666666666666667 y_28 + 0.0909090909090909 y_29
   + 0.0714285714285714 y_30 + 0.05 y_31 + 0.0833333333333333 y_32
   + 0.05 y_33 + 0.04 y_34 + 0.0909090909090909 y_35
   + 0.0476190476190476 y_36 + 0.0476190476190476 y_37
   + 0.0454545454545455 y_38 + 0.125 y_39 + 0.0666666666666667 y_40
   + 0.0476190476190476 y_41 + 0.0454545454545455 y_42 + 0.0625 y_43
   + 0.125 y_44 + 0.1 y_45 + 0.0588235294117647 y_46
   + 0.0769230769230769 y_47 + 0.0588235294117647 y_48
   + 0.0714285714285714 y_49 + 0.1428571428571428 y_50
   + 0.0454545454545455 y_51 + 0.0769230769230769 y_52
   + 0.0666666666666667 y_53 + 0.05 y_54 + 0.0714285714285714 y_55
   + 0.05 y_56 + 0.05 y_57 + 0.0666666666666667 y_58
   + 0.0666666666666667 y_59 + y_60 + 0.0454545454545455 y_61
   + 0.0769230769230769 y_62 + 0.0454545454545455 y_63
   + 0.0666666666666667 y_64 + 0.0526315789473684 y_65
   + 0.0416666666666667 y_66 + 0.0526315789473684 y_67
   + 0.0454545454545455 y_68 + 0.0666666666666667 y_69 + 0.1 y_70
   + 0.0714285714285714 y_71 + 0.0476190476190476 y_72 + 0.05 y_73
   + 0.1111111111111111 y_74 + 0.0909090909090909 y_75
   + 0.0769230769230769 y_76 + 0.05 y_77 + 0.0714285714285714 y_78
   + 0.0526315789473684 y_79 + 0.0769230769230769 y_80 + 0.25 y_81
   + 0.0769230769230769 y_82 + 0.05 y_83 + 0.0555555555555556 y_84
   + 0.1666666666666667 y_85 + 0.1666666666666667 y_86
   + 0.0476190476190476 y_87 + 0.1 y_88 + 0.1111111111111111 y_89
   + 0.05 y_90 + 0.0476190476190476 y_91 + 0.0714285714285714 y_92
   + 0.125 y_93 + 0.04 y_94 + 0.0526315789473684 y_95
   + 0.0588235294117647 y_96 + 0.25 y_97 + 0.0909090909090909 y_98
   + 0.0434782608695652 y_99 - 8.761554902150534 Constant
Subject To
 c_0: y_67 = 1
 c_1_0: y_0 + y_22 + y_25 + y_60 + y_81 + y_93 >= 1
 c_1_1: y_1 + y_11 + y_17 + y_27 + y_30 + y_40 + y_53 + y_55 + y_58 + y_59
   + y_64 + y_71 + y_82 + y_84 + y_96 >= 1
 c_1_2: y_2 + y_5 + y_12 + y_16 + y_26 + y_38 + y_42 + y_46 + y_54 + y_56
   + y_57 + y_61 + y_77 + y_95 + y_99 >= 1
 c_1_3: y_3 + y_12 + y_21 + y_34 + y_41 + y_51 + y_63 + y_68 + y_87 >= 1
 c_1_4: y_4 + y_14 + y_19 + y_31 + y_33 + y_41 + y_51 + y_63 + y_65 + y_68
   + y_72 + y_83 + y_87 + y_90 >= 1
 c_1_5: y_2 + y_5 + y_12 + y_16 + y_34 + y_38 + y_41 + y_54 + y_56 + y_57
   + y_61 + y_63 + y_66 + y_68 + y_77 + y_87 + y_94 + y_95 + y_99 >= 1
 c_1_6: y_6 + y_7 + y_39 + y_45 + y_70 + y_74 + y_82 + y_89 >= 1
 c_1_7: y_6 + y_7 + y_30 + y_39 + y_45 + y_55 + y_70 + y_71 + y_74 + y_82
   + y_89 >= 1
 c_1_8: y_8 + y_43 + y_67 + y_69 + y_80 >= 1
 c_1_9: y_9 + y_10 + y_11 + y_13 + y_17 + y_18 + y_24 + y_26 + y_28 + y_35
   + y_46 + y_52 + y_58 + y_78 + y_92 + y_95 >= 1
 c_1_10: y_9 + y_10 + y_11 + y_13 + y_17 + y_18 + y_35 + y_52 + y_55 + y_58
   + y_70 + y_75 + y_78 + y_88 + y_89 + y_92 >= 1
 c_1_11: y_1 + y_9 + y_10 + y_11 + y_17 + y_18 + y_30 + y_35 + y_40 + y_52
   + y_53 + y_55 + y_58 + y_59 + y_64 + y_70 + y_71 + y_78 + y_88 + y_92
   >= 1
 c_1_12: y_2 + y_3 + y_5 + y_12 + y_16 + y_31 + y_34 + y_41 + y_51 + y_54
   + y_57 + y_61 + y_63 + y_68 + y_77 + y_87 >= 1
 c_1_13: y_9 + y_10 + y_13 + y_18 + y_26 + y_28 + y_35 + y_46 + y_47 + y_48
   + y_52 + y_75 + y_76 + y_78 + y_92 >= 1
 c_1_14: y_4 + y_14 + y_19 + y_31 + y_33 + y_41 + y_51 + y_63 + y_65 + y_68
   + y_72 + y_83 + y_87 + y_90 >= 1
 c_1_15: y_15 + y_24 + y_36 + y_37 + y_79 + y_84 + y_91 >= 1
 c_1_16: y_2 + y_5 + y_12 + y_16 + y_38 + y_42 + y_54 + y_56 + y_57 + y_61
   + y_66 + y_94 + y_95 + y_99 >= 1
 c_1_17: y_1 + y_9 + y_10 + y_11 + y_17 + y_24 + y_26 + y_30 + y_40 + y_53
   + y_55 + y_58 + y_59 + y_64 + y_71 + y_78 + y_79 + y_84 + y_92 >= 1
 c_1_18: y_9 + y_10 + y_11 + y_13 + y_18 + y_26 + y_28 + y_35 + y_46 + y_47
   + y_48 + y_52 + y_75 + y_76 + y_78 + y_92 >= 1
 c_1_19: y_4 + y_14 + y_19 + y_31 + y_33 + y_41 + y_51 + y_63 + y_65 + y_68
   + y_72 + y_83 + y_87 + y_90 >= 1
 c_1_20: y_20 + y_25 + y_60 + y_81 + y_85 + y_86 + y_97 >= 1
 c_1_21: y_3 + y_21 + y_34 + y_63 + y_66 + y_68 >= 1
 c_1_22: y_0 + y_22 + y_25 + y_93 >= 1
 c_1_23: y_23 + y_47 + y_49 + y_62 + y_65 + y_67 + y_76 + y_80 >= 1
 c_1_24: y_9 + y_15 + y_17 + y_24 + y_26 + y_36 + y_56 + y_58 + y_79 + y_91
   + y_95 >= 1
 c_1_25: y_0 + y_20 + y_22 + y_25 + y_44 + y_50 + y_60 + y_81 + y_85 + y_86
   + y_97 >= 1
 c_1_26: y_2 + y_9 + y_13 + y_17 + y_18 + y_24 + y_26 + y_46 + y_54 + y_56
   + y_57 + y_78 + y_92 + y_95 >= 1
 c_1_27: y_1 + y_27 + y_37 + y_84 + y_96 >= 1
 c_1_28: y_9 + y_13 + y_18 + y_28 + y_46 + y_47 + y_48 + y_49 + y_52 + y_75
   + y_76 + y_78 >= 1
 c_1_29: y_29 + y_32 + y_62 + y_69 + y_80 + y_93 >= 1
 c_1_30: y_1 + y_7 + y_11 + y_17 + y_30 + y_40 + y_53 + y_55 + y_58 + y_59
   + y_64 + y_71 + y_74 + y_82 + y_96 >= 1
 c_1_31: y_4 + y_12 + y_14 + y_19 + y_31 + y_33 + y_41 + y_48 + y_51 + y_63
   + y_65 + y_68 + y_72 + y_77 + y_83 + y_87 + y_90 >= 1
 c_1_32: y_29 + y_32 + y_62 + y_69 + y_80 + y_93 >= 1
 c_1_33: y_4 + y_14 + y_19 + y_31 + y_33 + y_41 + y_51 + y_65 + y_67 + y_68
   + y_72 + y_77 + y_83 + y_87 + y_90 >= 1
 c_1_34: y_3 + y_5 + y_12 + y_21 + y_34 + y_61 + y_63 + y_66 + y_68 + y_94
   >= 1
 c_1_35: y_9 + y_10 + y_11 + y_13 + y_18 + y_35 + y_44 + y_52 + y_70 + y_75
   + y_76 + y_78 + y_88 + y_89 + y_92 + y_98 >= 1
 c_1_36: y_15 + y_24 + y_36 + y_42 + y_56 + y_79 + y_91 >= 1
 c_1_37: y_15 + y_27 + y_37 + y_84 >= 1
 c_1_38: y_2 + y_5 + y_16 + y_38 + y_42 + y_54 + y_56 + y_57 + y_61 + y_66
   + y_94 + y_95 + y_99 >= 1
 c_1_39: y_6 + y_7 + y_39 + y_45 + y_70 + y_74 + y_86 + y_89 + y_97 >= 1
 c_1_40: y_1 + y_11 + y_17 + y_30 + y_40 + y_53 + y_55 + y_58 + y_59 + y_64
   + y_71 + y_82 + y_84 + y_92 + y_96 >= 1
 c_1_41: y_3 + y_4 + y_5 + y_12 + y_14 + y_19 + y_31 + y_33 + y_41 + y_51
   + y_54 + y_57 + y_61 + y_63 + y_68 + y_77 + y_87 + y_90 >= 1
 c_1_42: y_2 + y_16 + y_36 + y_38 + y_42 + y_56 + y_61 + y_91 + y_94 + y_95
   + y_99 >= 1
 c_1_43: y_8 + y_43 + y_62 + y_69 + y_80 >= 1
 c_1_44: y_25 + y_35 + y_44 + y_50 + y_70 + y_75 + y_81 + y_85 + y_88
   + y_89 + y_97 >= 1
 c_1_45: y_6 + y_7 + y_39 + y_45 + y_70 + y_74 + y_82 + y_89 >= 1
 c_1_46: y_2 + y_9 + y_13 + y_18 + y_26 + y_28 + y_46 + y_48 + y_52 + y_54
   + y_56 + y_57 + y_78 + y_92 + y_95 >= 1
 c_1_47: y_13 + y_18 + y_23 + y_28 + y_47 + y_48 + y_49 + y_52 + y_62
   + y_75 + y_76 + y_98 >= 1
 c_1_48: y_13 + y_18 + y_28 + y_31 + y_46 + y_47 + y_48 + y_49 + y_57
   + y_76 + y_77 >= 1
 c_1_49: y_23 + y_28 + y_47 + y_48 + y_49 + y_62 + y_76 + y_98 >= 1
 c_1_50: y_25 + y_44 + y_50 + y_70 + y_74 + y_81 + y_85 + y_86 + y_88
   + y_89 + y_97 >= 1
 c_1_51: y_3 + y_4 + y_12 + y_14 + y_19 + y_31 + y_33 + y_41 + y_51 + y_63
   + y_65 + y_68 + y_72 + y_77 + y_83 + y_87 + y_90 >= 1
 c_1_52: y_9 + y_10 + y_11 + y_13 + y_18 + y_28 + y_35 + y_46 + y_47 + y_52
   + y_75 + y_76 + y_78 + y_88 + y_92 >= 1
 c_1_53: y_1 + y_11 + y_17 + y_30 + y_40 + y_53 + y_55 + y_58 + y_59 + y_64
   + y_71 + y_82 + y_84 + y_92 + y_96 >= 1
 c_1_54: y_2 + y_5 + y_12 + y_16 + y_26 + y_38 + y_41 + y_46 + y_54 + y_56
   + y_57 + y_61 + y_63 + y_77 + y_87 + y_95 + y_99 >= 1
 c_1_55: y_1 + y_7 + y_10 + y_11 + y_17 + y_30 + y_40 + y_53 + y_55 + y_58
   + y_59 + y_64 + y_71 + y_82 + y_84 + y_92 >= 1
 c_1_56: y_2 + y_5 + y_16 + y_24 + y_26 + y_36 + y_38 + y_42 + y_46 + y_54
   + y_56 + y_57 + y_61 + y_91 + y_95 + y_99 >= 1
 c_1_57: y_2 + y_5 + y_12 + y_16 + y_26 + y_38 + y_41 + y_46 + y_48 + y_54
   + y_56 + y_57 + y_61 + y_63 + y_77 + y_87 + y_95 >= 1
 c_1_58: y_1 + y_9 + y_10 + y_11 + y_17 + y_24 + y_30 + y_40 + y_53 + y_55
   + y_58 + y_59 + y_64 + y_71 + y_78 + y_79 + y_84 + y_92 >= 1
 c_1_59: y_1 + y_11 + y_17 + y_30 + y_40 + y_53 + y_55 + y_58 + y_59 + y_64
   + y_71 + y_82 + y_84 + y_92 + y_96 >= 1
 c_1_60: y_0 + y_20 + y_25 + y_60 + y_81 + y_97 >= 1
 c_1_61: y_2 + y_5 + y_12 + y_16 + y_34 + y_38 + y_41 + y_42 + y_54 + y_56
   + y_57 + y_61 + y_63 + y_66 + y_68 + y_77 + y_87 + y_94 + y_95 + y_99
   >= 1
 c_1_62: y_23 + y_29 + y_32 + y_43 + y_47 + y_49 + y_62 + y_80 + y_98 >= 1
 c_1_63: y_3 + y_4 + y_5 + y_12 + y_14 + y_19 + y_21 + y_31 + y_34 + y_41
   + y_51 + y_54 + y_57 + y_61 + y_63 + y_68 + y_77 + y_87 >= 1
 c_1_64: y_1 + y_11 + y_17 + y_30 + y_40 + y_53 + y_55 + y_58 + y_59 + y_64
   + y_71 + y_82 + y_84 + y_96 >= 1
 c_1_65: y_4 + y_14 + y_19 + y_23 + y_31 + y_33 + y_51 + y_65 + y_67 + y_72
   + y_73 + y_83 + y_90 >= 1
 c_1_66: y_5 + y_16 + y_21 + y_34 + y_38 + y_61 + y_66 + y_94 + y_99 >= 1
 c_1_67: y_8 + y_23 + y_33 + y_65 + y_67 + y_72 + y_73 + y_83 + y_90 >= 1
 c_1_68: y_3 + y_4 + y_5 + y_12 + y_14 + y_19 + y_21 + y_31 + y_33 + y_34
   + y_41 + y_51 + y_61 + y_63 + y_68 + y_77 + y_87 + y_90 >= 1
 c_1_69: y_8 + y_29 + y_32 + y_43 + y_69 + y_80 >= 1
 c_1_70: y_6 + y_7 + y_10 + y_11 + y_35 + y_39 + y_44 + y_45 + y_50 + y_70
   + y_74 + y_88 + y_89 >= 1
 c_1_71: y_1 + y_7 + y_11 + y_17 + y_30 + y_40 + y_53 + y_55 + y_58 + y_59
   + y_64 + y_71 + y_82 + y_84 + y_96 >= 1
 c_1_72: y_4 + y_14 + y_19 + y_31 + y_33 + y_51 + y_65 + y_67 + y_72 + y_73
   + y_83 + y_90 >= 1
 c_1_73: y_65 + y_67 + y_72 + y_73 + y_83 >= 1
 c_1_74: y_6 + y_7 + y_30 + y_39 + y_45 + y_50 + y_70 + y_74 + y_82 + y_89
   >= 1
 c_1_75: y_10 + y_13 + y_18 + y_28 + y_35 + y_44 + y_47 + y_52 + y_75
   + y_76 + y_78 + y_88 + y_92 + y_98 >= 1
 c_1_76: y_13 + y_18 + y_23 + y_28 + y_35 + y_47 + y_48 + y_49 + y_52
   + y_75 + y_76 + y_98 >= 1
 c_1_77: y_2 + y_5 + y_12 + y_31 + y_33 + y_41 + y_48 + y_51 + y_54 + y_57
   + y_61 + y_63 + y_68 + y_77 + y_87 >= 1
 c_1_78: y_9 + y_10 + y_11 + y_13 + y_17 + y_18 + y_26 + y_28 + y_35 + y_46
   + y_52 + y_58 + y_75 + y_78 + y_92 >= 1
 c_1_79: y_15 + y_17 + y_24 + y_36 + y_58 + y_79 + y_84 + y_91 >= 1
 c_1_80: y_8 + y_23 + y_29 + y_32 + y_43 + y_62 + y_69 + y_80 >= 1
 c_1_81: y_0 + y_20 + y_25 + y_44 + y_50 + y_60 + y_81 + y_85 + y_86 + y_97
   >= 1
 c_1_82: y_1 + y_6 + y_7 + y_30 + y_40 + y_45 + y_53 + y_55 + y_59 + y_64
   + y_71 + y_74 + y_82 + y_96 >= 1
 c_1_83: y_4 + y_14 + y_19 + y_31 + y_33 + y_51 + y_65 + y_67 + y_72 + y_73
   + y_83 + y_90 >= 1
 c_1_84: y_1 + y_15 + y_17 + y_27 + y_37 + y_40 + y_53 + y_55 + y_58 + y_59
   + y_64 + y_71 + y_79 + y_84 + y_96 >= 1
 c_1_85: y_20 + y_25 + y_44 + y_50 + y_81 + y_85 + y_86 + y_89 + y_97 >= 1
 c_1_86: y_20 + y_25 + y_39 + y_50 + y_81 + y_85 + y_86 + y_97 >= 1
 c_1_87: y_3 + y_4 + y_5 + y_12 + y_14 + y_19 + y_31 + y_33 + y_41 + y_51
   + y_54 + y_57 + y_61 + y_63 + y_68 + y_77 + y_87 + y_90 >= 1
 c_1_88: y_10 + y_11 + y_35 + y_44 + y_50 + y_52 + y_70 + y_75 + y_88
   + y_89 + y_98 >= 1
 c_1_89: y_6 + y_7 + y_10 + y_35 + y_39 + y_44 + y_45 + y_50 + y_70 + y_74
   + y_85 + y_88 + y_89 >= 1
 c_1_90: y_4 + y_14 + y_19 + y_31 + y_33 + y_41 + y_51 + y_65 + y_67 + y_68
   + y_72 + y_83 + y_87 + y_90 >= 1
 c_1_91: y_15 + y_24 + y_36 + y_42 + y_56 + y_79 + y_91 >= 1
 c_1_92: y_9 + y_10 + y_11 + y_13 + y_17 + y_18 + y_26 + y_35 + y_40 + y_46
   + y_52 + y_53 + y_55 + y_58 + y_59 + y_75 + y_78 + y_92 >= 1
 c_1_93: y_0 + y_22 + y_29 + y_32 + y_93 >= 1
 c_1_94: y_5 + y_16 + y_34 + y_38 + y_42 + y_61 + y_66 + y_94 + y_99 >= 1
 c_1_95: y_2 + y_5 + y_9 + y_16 + y_24 + y_26 + y_38 + y_42 + y_46 + y_54
   + y_56 + y_57 + y_61 + y_95 >= 1
 c_1_96: y_1 + y_27 + y_30 + y_40 + y_53 + y_59 + y_64 + y_71 + y_82 + y_84
   + y_96 >= 1
 c_1_97: y_20 + y_25 + y_39 + y_44 + y_50 + y_60 + y_81 + y_85 + y_86
   + y_97 >= 1
 c_1_98: y_35 + y_47 + y_49 + y_62 + y_75 + y_76 + y_88 + y_98 >= 1
 c_1_99: y_2 + y_5 + y_16 + y_38 + y_42 + y_54 + y_56 + y_61 + y_66 + y_94
   + y_99 >= 1
Bounds
 Constant = 1
Binaries
 y_0 y_1 y_2 y_3 y_4 y_5 y_6 y_7 y_8 y_9 y_10 y_11 y_12 y_13 y_14 y_15 y_16
 y_17 y_18 y_19 y_20 y_21 y_22 y_23 y_24 y_25 y_26 y_27 y_28 y_29 y_30 y_31
 y_32 y_33 y_34 y_35 y_36 y_37 y_38 y_39 y_40 y_41 y_42 y_43 y_44 y_45 y_46
 y_47 y_48 y_49 y_50 y_51 y_52 y_53 y_54 y_55 y_56 y_57 y_58 y_59 y_60 y_61
 y_62 y_63 y_64 y_65 y_66 y_67 y_68 y_69 y_70 y_71 y_72 y_73 y_74 y_75 y_76
 y_77 y_78 y_79 y_80 y_81 y_82 y_83 y_84 y_85 y_86 y_87 y_88 y_89 y_90 y_91
 y_92 y_93 y_94 y_95 y_96 y_97 y_98 y_99
End
